c graph colorability of graph:
c random_regular_graph(5, 98).
c
c Generated with `cnfgen`
c (C) 2012-2016 Massimo Lauria <lauria.massimo@gmail.com>
c https://massimolauria.github.io/cnfgen
c
p cnf 294 1127
1 2 3 0
-1 -2 0
-1 -3 0
-2 -3 0
4 5 6 0
-4 -5 0
-4 -6 0
-5 -6 0
7 8 9 0
-7 -8 0
-7 -9 0
-8 -9 0
10 11 12 0
-10 -11 0
-10 -12 0
-11 -12 0
13 14 15 0
-13 -14 0
-13 -15 0
-14 -15 0
16 17 18 0
-16 -17 0
-16 -18 0
-17 -18 0
19 20 21 0
-19 -20 0
-19 -21 0
-20 -21 0
22 23 24 0
-22 -23 0
-22 -24 0
-23 -24 0
25 26 27 0
-25 -26 0
-25 -27 0
-26 -27 0
28 29 30 0
-28 -29 0
-28 -30 0
-29 -30 0
31 32 33 0
-31 -32 0
-31 -33 0
-32 -33 0
34 35 36 0
-34 -35 0
-34 -36 0
-35 -36 0
37 38 39 0
-37 -38 0
-37 -39 0
-38 -39 0
40 41 42 0
-40 -41 0
-40 -42 0
-41 -42 0
43 44 45 0
-43 -44 0
-43 -45 0
-44 -45 0
46 47 48 0
-46 -47 0
-46 -48 0
-47 -48 0
49 50 51 0
-49 -50 0
-49 -51 0
-50 -51 0
52 53 54 0
-52 -53 0
-52 -54 0
-53 -54 0
55 56 57 0
-55 -56 0
-55 -57 0
-56 -57 0
58 59 60 0
-58 -59 0
-58 -60 0
-59 -60 0
61 62 63 0
-61 -62 0
-61 -63 0
-62 -63 0
64 65 66 0
-64 -65 0
-64 -66 0
-65 -66 0
67 68 69 0
-67 -68 0
-67 -69 0
-68 -69 0
70 71 72 0
-70 -71 0
-70 -72 0
-71 -72 0
73 74 75 0
-73 -74 0
-73 -75 0
-74 -75 0
76 77 78 0
-76 -77 0
-76 -78 0
-77 -78 0
79 80 81 0
-79 -80 0
-79 -81 0
-80 -81 0
82 83 84 0
-82 -83 0
-82 -84 0
-83 -84 0
85 86 87 0
-85 -86 0
-85 -87 0
-86 -87 0
88 89 90 0
-88 -89 0
-88 -90 0
-89 -90 0
91 92 93 0
-91 -92 0
-91 -93 0
-92 -93 0
94 95 96 0
-94 -95 0
-94 -96 0
-95 -96 0
97 98 99 0
-97 -98 0
-97 -99 0
-98 -99 0
100 101 102 0
-100 -101 0
-100 -102 0
-101 -102 0
103 104 105 0
-103 -104 0
-103 -105 0
-104 -105 0
106 107 108 0
-106 -107 0
-106 -108 0
-107 -108 0
109 110 111 0
-109 -110 0
-109 -111 0
-110 -111 0
112 113 114 0
-112 -113 0
-112 -114 0
-113 -114 0
115 116 117 0
-115 -116 0
-115 -117 0
-116 -117 0
118 119 120 0
-118 -119 0
-118 -120 0
-119 -120 0
121 122 123 0
-121 -122 0
-121 -123 0
-122 -123 0
124 125 126 0
-124 -125 0
-124 -126 0
-125 -126 0
127 128 129 0
-127 -128 0
-127 -129 0
-128 -129 0
130 131 132 0
-130 -131 0
-130 -132 0
-131 -132 0
133 134 135 0
-133 -134 0
-133 -135 0
-134 -135 0
136 137 138 0
-136 -137 0
-136 -138 0
-137 -138 0
139 140 141 0
-139 -140 0
-139 -141 0
-140 -141 0
142 143 144 0
-142 -143 0
-142 -144 0
-143 -144 0
145 146 147 0
-145 -146 0
-145 -147 0
-146 -147 0
148 149 150 0
-148 -149 0
-148 -150 0
-149 -150 0
151 152 153 0
-151 -152 0
-151 -153 0
-152 -153 0
154 155 156 0
-154 -155 0
-154 -156 0
-155 -156 0
157 158 159 0
-157 -158 0
-157 -159 0
-158 -159 0
160 161 162 0
-160 -161 0
-160 -162 0
-161 -162 0
163 164 165 0
-163 -164 0
-163 -165 0
-164 -165 0
166 167 168 0
-166 -167 0
-166 -168 0
-167 -168 0
169 170 171 0
-169 -170 0
-169 -171 0
-170 -171 0
172 173 174 0
-172 -173 0
-172 -174 0
-173 -174 0
175 176 177 0
-175 -176 0
-175 -177 0
-176 -177 0
178 179 180 0
-178 -179 0
-178 -180 0
-179 -180 0
181 182 183 0
-181 -182 0
-181 -183 0
-182 -183 0
184 185 186 0
-184 -185 0
-184 -186 0
-185 -186 0
187 188 189 0
-187 -188 0
-187 -189 0
-188 -189 0
190 191 192 0
-190 -191 0
-190 -192 0
-191 -192 0
193 194 195 0
-193 -194 0
-193 -195 0
-194 -195 0
196 197 198 0
-196 -197 0
-196 -198 0
-197 -198 0
199 200 201 0
-199 -200 0
-199 -201 0
-200 -201 0
202 203 204 0
-202 -203 0
-202 -204 0
-203 -204 0
205 206 207 0
-205 -206 0
-205 -207 0
-206 -207 0
208 209 210 0
-208 -209 0
-208 -210 0
-209 -210 0
211 212 213 0
-211 -212 0
-211 -213 0
-212 -213 0
214 215 216 0
-214 -215 0
-214 -216 0
-215 -216 0
217 218 219 0
-217 -218 0
-217 -219 0
-218 -219 0
220 221 222 0
-220 -221 0
-220 -222 0
-221 -222 0
223 224 225 0
-223 -224 0
-223 -225 0
-224 -225 0
226 227 228 0
-226 -227 0
-226 -228 0
-227 -228 0
229 230 231 0
-229 -230 0
-229 -231 0
-230 -231 0
232 233 234 0
-232 -233 0
-232 -234 0
-233 -234 0
235 236 237 0
-235 -236 0
-235 -237 0
-236 -237 0
238 239 240 0
-238 -239 0
-238 -240 0
-239 -240 0
241 242 243 0
-241 -242 0
-241 -243 0
-242 -243 0
244 245 246 0
-244 -245 0
-244 -246 0
-245 -246 0
247 248 249 0
-247 -248 0
-247 -249 0
-248 -249 0
250 251 252 0
-250 -251 0
-250 -252 0
-251 -252 0
253 254 255 0
-253 -254 0
-253 -255 0
-254 -255 0
256 257 258 0
-256 -257 0
-256 -258 0
-257 -258 0
259 260 261 0
-259 -260 0
-259 -261 0
-260 -261 0
262 263 264 0
-262 -263 0
-262 -264 0
-263 -264 0
265 266 267 0
-265 -266 0
-265 -267 0
-266 -267 0
268 269 270 0
-268 -269 0
-268 -270 0
-269 -270 0
271 272 273 0
-271 -272 0
-271 -273 0
-272 -273 0
274 275 276 0
-274 -275 0
-274 -276 0
-275 -276 0
277 278 279 0
-277 -278 0
-277 -279 0
-278 -279 0
280 281 282 0
-280 -281 0
-280 -282 0
-281 -282 0
283 284 285 0
-283 -284 0
-283 -285 0
-284 -285 0
286 287 288 0
-286 -287 0
-286 -288 0
-287 -288 0
289 290 291 0
-289 -290 0
-289 -291 0
-290 -291 0
292 293 294 0
-292 -293 0
-292 -294 0
-293 -294 0
-1 -4 0
-2 -5 0
-3 -6 0
-1 -160 0
-2 -161 0
-3 -162 0
-1 -208 0
-2 -209 0
-3 -210 0
-1 -226 0
-2 -227 0
-3 -228 0
-1 -250 0
-2 -251 0
-3 -252 0
-4 -211 0
-5 -212 0
-6 -213 0
-4 -223 0
-5 -224 0
-6 -225 0
-4 -226 0
-5 -227 0
-6 -228 0
-4 -262 0
-5 -263 0
-6 -264 0
-7 -28 0
-8 -29 0
-9 -30 0
-7 -85 0
-8 -86 0
-9 -87 0
-7 -142 0
-8 -143 0
-9 -144 0
-7 -214 0
-8 -215 0
-9 -216 0
-7 -292 0
-8 -293 0
-9 -294 0
-10 -211 0
-11 -212 0
-12 -213 0
-10 -232 0
-11 -233 0
-12 -234 0
-10 -256 0
-11 -257 0
-12 -258 0
-10 -265 0
-11 -266 0
-12 -267 0
-10 -277 0
-11 -278 0
-12 -279 0
-13 -16 0
-14 -17 0
-15 -18 0
-13 -49 0
-14 -50 0
-15 -51 0
-13 -67 0
-14 -68 0
-15 -69 0
-13 -130 0
-14 -131 0
-15 -132 0
-13 -184 0
-14 -185 0
-15 -186 0
-16 -58 0
-17 -59 0
-18 -60 0
-16 -88 0
-17 -89 0
-18 -90 0
-16 -91 0
-17 -92 0
-18 -93 0
-16 -169 0
-17 -170 0
-18 -171 0
-19 -121 0
-20 -122 0
-21 -123 0
-19 -160 0
-20 -161 0
-21 -162 0
-19 -172 0
-20 -173 0
-21 -174 0
-19 -199 0
-20 -200 0
-21 -201 0
-19 -250 0
-20 -251 0
-21 -252 0
-22 -40 0
-23 -41 0
-24 -42 0
-22 -64 0
-23 -65 0
-24 -66 0
-22 -172 0
-23 -173 0
-24 -174 0
-22 -220 0
-23 -221 0
-24 -222 0
-22 -256 0
-23 -257 0
-24 -258 0
-25 -67 0
-26 -68 0
-27 -69 0
-25 -112 0
-26 -113 0
-27 -114 0
-25 -121 0
-26 -122 0
-27 -123 0
-25 -286 0
-26 -287 0
-27 -288 0
-25 -289 0
-26 -290 0
-27 -291 0
-28 -115 0
-29 -116 0
-30 -117 0
-28 -124 0
-29 -125 0
-30 -126 0
-28 -163 0
-29 -164 0
-30 -165 0
-28 -253 0
-29 -254 0
-30 -255 0
-31 -61 0
-32 -62 0
-33 -63 0
-31 -82 0
-32 -83 0
-33 -84 0
-31 -85 0
-32 -86 0
-33 -87 0
-31 -259 0
-32 -260 0
-33 -261 0
-31 -286 0
-32 -287 0
-33 -288 0
-34 -40 0
-35 -41 0
-36 -42 0
-34 -91 0
-35 -92 0
-36 -93 0
-34 -106 0
-35 -107 0
-36 -108 0
-34 -127 0
-35 -128 0
-36 -129 0
-34 -244 0
-35 -245 0
-36 -246 0
-37 -145 0
-38 -146 0
-39 -147 0
-37 -160 0
-38 -161 0
-39 -162 0
-37 -208 0
-38 -209 0
-39 -210 0
-37 -220 0
-38 -221 0
-39 -222 0
-37 -247 0
-38 -248 0
-39 -249 0
-40 -175 0
-41 -176 0
-42 -177 0
-40 -196 0
-41 -197 0
-42 -198 0
-40 -289 0
-41 -290 0
-42 -291 0
-43 -46 0
-44 -47 0
-45 -48 0
-43 -112 0
-44 -113 0
-45 -114 0
-43 -145 0
-44 -146 0
-45 -147 0
-43 -157 0
-44 -158 0
-45 -159 0
-43 -262 0
-44 -263 0
-45 -264 0
-46 -49 0
-47 -50 0
-48 -51 0
-46 -109 0
-47 -110 0
-48 -111 0
-46 -184 0
-47 -185 0
-48 -186 0
-46 -208 0
-47 -209 0
-48 -210 0
-49 -169 0
-50 -170 0
-51 -171 0
-49 -226 0
-50 -227 0
-51 -228 0
-49 -292 0
-50 -293 0
-51 -294 0
-52 -172 0
-53 -173 0
-54 -174 0
-52 -181 0
-53 -182 0
-54 -183 0
-52 -229 0
-53 -230 0
-54 -231 0
-52 -247 0
-53 -248 0
-54 -249 0
-52 -259 0
-53 -260 0
-54 -261 0
-55 -118 0
-56 -119 0
-57 -120 0
-55 -121 0
-56 -122 0
-57 -123 0
-55 -142 0
-56 -143 0
-57 -144 0
-55 -154 0
-56 -155 0
-57 -156 0
-55 -250 0
-56 -251 0
-57 -252 0
-58 -103 0
-59 -104 0
-60 -105 0
-58 -157 0
-59 -158 0
-60 -159 0
-58 -193 0
-59 -194 0
-60 -195 0
-58 -220 0
-59 -221 0
-60 -222 0
-61 -133 0
-62 -134 0
-63 -135 0
-61 -178 0
-62 -179 0
-63 -180 0
-61 -196 0
-62 -197 0
-63 -198 0
-61 -259 0
-62 -260 0
-63 -261 0
-64 -106 0
-65 -107 0
-66 -108 0
-64 -130 0
-65 -131 0
-66 -132 0
-64 -136 0
-65 -137 0
-66 -138 0
-64 -163 0
-65 -164 0
-66 -165 0
-67 -157 0
-68 -158 0
-69 -159 0
-67 -217 0
-68 -218 0
-69 -219 0
-67 -238 0
-68 -239 0
-69 -240 0
-70 -139 0
-71 -140 0
-72 -141 0
-70 -238 0
-71 -239 0
-72 -240 0
-70 -241 0
-71 -242 0
-72 -243 0
-70 -253 0
-71 -254 0
-72 -255 0
-70 -256 0
-71 -257 0
-72 -258 0
-73 -100 0
-74 -101 0
-75 -102 0
-73 -163 0
-74 -164 0
-75 -165 0
-73 -181 0
-74 -182 0
-75 -183 0
-73 -193 0
-74 -194 0
-75 -195 0
-73 -211 0
-74 -212 0
-75 -213 0
-76 -118 0
-77 -119 0
-78 -120 0
-76 -133 0
-77 -134 0
-78 -135 0
-76 -184 0
-77 -185 0
-78 -186 0
-76 -223 0
-77 -224 0
-78 -225 0
-76 -286 0
-77 -287 0
-78 -288 0
-79 -88 0
-80 -89 0
-81 -90 0
-79 -103 0
-80 -104 0
-81 -105 0
-79 -244 0
-80 -245 0
-81 -246 0
-79 -271 0
-80 -272 0
-81 -273 0
-79 -283 0
-80 -284 0
-81 -285 0
-82 -133 0
-83 -134 0
-84 -135 0
-82 -166 0
-83 -167 0
-84 -168 0
-82 -253 0
-83 -254 0
-84 -255 0
-82 -268 0
-83 -269 0
-84 -270 0
-85 -106 0
-86 -107 0
-87 -108 0
-85 -148 0
-86 -149 0
-87 -150 0
-85 -202 0
-86 -203 0
-87 -204 0
-88 -103 0
-89 -104 0
-90 -105 0
-88 -160 0
-89 -161 0
-90 -162 0
-88 -214 0
-89 -215 0
-90 -216 0
-91 -205 0
-92 -206 0
-93 -207 0
-91 -223 0
-92 -224 0
-93 -225 0
-91 -232 0
-92 -233 0
-93 -234 0
-94 -151 0
-95 -152 0
-96 -153 0
-94 -184 0
-95 -185 0
-96 -186 0
-94 -217 0
-95 -218 0
-96 -219 0
-94 -235 0
-95 -236 0
-96 -237 0
-94 -292 0
-95 -293 0
-96 -294 0
-97 -112 0
-98 -113 0
-99 -114 0
-97 -124 0
-98 -125 0
-99 -126 0
-97 -148 0
-98 -149 0
-99 -150 0
-97 -271 0
-98 -272 0
-99 -273 0
-97 -283 0
-98 -284 0
-99 -285 0
-100 -127 0
-101 -128 0
-102 -129 0
-100 -175 0
-101 -176 0
-102 -177 0
-100 -196 0
-101 -197 0
-102 -198 0
-100 -265 0
-101 -266 0
-102 -267 0
-103 -151 0
-104 -152 0
-105 -153 0
-103 -178 0
-104 -179 0
-105 -180 0
-106 -181 0
-107 -182 0
-108 -183 0
-106 -265 0
-107 -266 0
-108 -267 0
-109 -178 0
-110 -179 0
-111 -180 0
-109 -244 0
-110 -245 0
-111 -246 0
-109 -262 0
-110 -263 0
-111 -264 0
-109 -280 0
-110 -281 0
-111 -282 0
-112 -154 0
-113 -155 0
-114 -156 0
-112 -280 0
-113 -281 0
-114 -282 0
-115 -127 0
-116 -128 0
-117 -129 0
-115 -193 0
-116 -194 0
-117 -195 0
-115 -247 0
-116 -248 0
-117 -249 0
-115 -268 0
-116 -269 0
-117 -270 0
-118 -175 0
-119 -176 0
-120 -177 0
-118 -226 0
-119 -227 0
-120 -228 0
-118 -289 0
-119 -290 0
-120 -291 0
-121 -205 0
-122 -206 0
-123 -207 0
-121 -286 0
-122 -287 0
-123 -288 0
-124 -187 0
-125 -188 0
-126 -189 0
-124 -190 0
-125 -191 0
-126 -192 0
-124 -283 0
-125 -284 0
-126 -285 0
-127 -145 0
-128 -146 0
-129 -147 0
-127 -268 0
-128 -269 0
-129 -270 0
-130 -142 0
-131 -143 0
-132 -144 0
-130 -199 0
-131 -200 0
-132 -201 0
-130 -214 0
-131 -215 0
-132 -216 0
-133 -208 0
-134 -209 0
-135 -210 0
-133 -274 0
-134 -275 0
-135 -276 0
-136 -145 0
-137 -146 0
-138 -147 0
-136 -169 0
-137 -170 0
-138 -171 0
-136 -172 0
-137 -173 0
-138 -174 0
-136 -238 0
-137 -239 0
-138 -240 0
-139 -145 0
-140 -146 0
-141 -147 0
-139 -217 0
-140 -218 0
-141 -219 0
-139 -235 0
-140 -236 0
-141 -237 0
-139 -283 0
-140 -284 0
-141 -285 0
-142 -163 0
-143 -164 0
-144 -165 0
-142 -190 0
-143 -191 0
-144 -192 0
-148 -220 0
-149 -221 0
-150 -222 0
-148 -223 0
-149 -224 0
-150 -225 0
-148 -238 0
-149 -239 0
-150 -240 0
-151 -235 0
-152 -236 0
-153 -237 0
-151 -238 0
-152 -239 0
-153 -240 0
-151 -271 0
-152 -272 0
-153 -273 0
-154 -175 0
-155 -176 0
-156 -177 0
-154 -187 0
-155 -188 0
-156 -189 0
-154 -274 0
-155 -275 0
-156 -276 0
-157 -178 0
-158 -179 0
-159 -180 0
-157 -214 0
-158 -215 0
-159 -216 0
-160 -280 0
-161 -281 0
-162 -282 0
-163 -232 0
-164 -233 0
-165 -234 0
-166 -178 0
-167 -179 0
-168 -180 0
-166 -205 0
-167 -206 0
-168 -207 0
-166 -229 0
-167 -230 0
-168 -231 0
-166 -274 0
-167 -275 0
-168 -276 0
-169 -259 0
-170 -260 0
-171 -261 0
-169 -292 0
-170 -293 0
-171 -294 0
-172 -190 0
-173 -191 0
-174 -192 0
-175 -196 0
-176 -197 0
-177 -198 0
-181 -229 0
-182 -230 0
-183 -231 0
-181 -241 0
-182 -242 0
-183 -243 0
-184 -265 0
-185 -266 0
-186 -267 0
-187 -193 0
-188 -194 0
-189 -195 0
-187 -205 0
-188 -206 0
-189 -207 0
-187 -244 0
-188 -245 0
-189 -246 0
-190 -202 0
-191 -203 0
-192 -204 0
-190 -274 0
-191 -275 0
-192 -276 0
-193 -289 0
-194 -290 0
-195 -291 0
-196 -280 0
-197 -281 0
-198 -282 0
-199 -235 0
-200 -236 0
-201 -237 0
-199 -253 0
-200 -254 0
-201 -255 0
-199 -265 0
-200 -266 0
-201 -267 0
-202 -226 0
-203 -227 0
-204 -228 0
-202 -250 0
-203 -251 0
-204 -252 0
-202 -277 0
-203 -278 0
-204 -279 0
-205 -244 0
-206 -245 0
-207 -246 0
-208 -274 0
-209 -275 0
-210 -276 0
-211 -220 0
-212 -221 0
-213 -222 0
-211 -277 0
-212 -278 0
-213 -279 0
-214 -262 0
-215 -263 0
-216 -264 0
-217 -253 0
-218 -254 0
-219 -255 0
-217 -277 0
-218 -278 0
-219 -279 0
-223 -256 0
-224 -257 0
-225 -258 0
-229 -247 0
-230 -248 0
-231 -249 0
-229 -280 0
-230 -281 0
-231 -282 0
-232 -241 0
-233 -242 0
-234 -243 0
-232 -286 0
-233 -287 0
-234 -288 0
-235 -259 0
-236 -260 0
-237 -261 0
-241 -283 0
-242 -284 0
-243 -285 0
-241 -289 0
-242 -290 0
-243 -291 0
-247 -271 0
-248 -272 0
-249 -273 0
-250 -277 0
-251 -278 0
-252 -279 0
-256 -268 0
-257 -269 0
-258 -270 0
-262 -271 0
-263 -272 0
-264 -273 0
-268 -292 0
-269 -293 0
-270 -294 0
